NAME: random-35-21590
TYPE: TSP
COMMENT: size=35 seed=21590
DIMENSION: 72
EDGE_WEIGHT_TYPE: EUC_2D
NODE_COORD_SECTION
+0 130 77
-0 130 77
+1 906 111
-1 255 588
+2 668 850
-2 87 892
+3 100 118
-3 692 678
+4 900 708
-4 381 459
+5 359 641
-5 58 694
+6 4 198
-6 115 674
+7 733 364
-7 739 955
+8 178 2
-8 776 828
+9 884 400
-9 398 501
+10 79 669
-10 376 432
+11 448 407
-11 28 990
+12 571 596
-12 34 112
+13 669 15
-13 988 782
+14 719 780
-14 737 141
+15 423 816
-15 448 271
+16 843 662
-16 768 894
+17 606 446
-17 750 219
+18 296 7
-18 611 791
+19 365 833
-19 423 394
+20 666 678
-20 836 229
+21 15 673
-21 885 693
+22 124 772
-22 922 959
+23 984 973
-23 666 132
+24 728 134
-24 762 664
+25 390 236
-25 490 570
+26 84 946
-26 449 919
+27 374 346
-27 288 5
+28 19 793
-28 620 7
+29 277 739
-29 910 775
+30 692 214
-30 52 952
+31 790 845
-31 567 887
+32 5 395
-32 730 531
+33 865 310
-33 667 0
+34 567 385
-34 871 605
+35 320 621
-35 891 524
PRECEDENCE_SECTION
+0 -0
+1 -1
+2 -2
+3 -3
+4 -4
+5 -5
+6 -6
+7 -7
+8 -8
+9 -9
+10 -10
+11 -11
+12 -12
+13 -13
+14 -14
+15 -15
+16 -16
+17 -17
+18 -18
+19 -19
+20 -20
+21 -21
+22 -22
+23 -23
+24 -24
+25 -25
+26 -26
+27 -27
+28 -28
+29 -29
+30 -30
+31 -31
+32 -32
+33 -33
+34 -34
+35 -35
EOF
